instances/in_40_20_9_3.lp
#const n = 40.
#const k = 20.
#const h = 9.
tile(1,20,11).
tile(2,19,10).
tile(3,18,6).
tile(4,16,20).
tile(5,8,18).
tile(6,10,9).
tile(7,12,8).
tile(8,20,18).
tile(9,15,20).
tile(10,1,2).
tile(11,14,13).
tile(12,17,17).
tile(13,5,14).
tile(14,14,10).
tile(15,1,7).
tile(16,2,7).
tile(17,4,12).
tile(18,7,9).
tile(19,20,16).
tile(20,20,15).
tile(21,9,18).
tile(22,1,7).
tile(23,17,1).
tile(24,19,7).
tile(25,3,7).
tile(26,2,10).
tile(27,5,13).
tile(28,9,8).
tile(29,17,7).
tile(30,15,9).
tile(31,5,3).
tile(32,1,6).
tile(33,3,2).
tile(34,12,4).
tile(35,19,12).
tile(36,18,10).
tile(37,7,14).
tile(38,19,3).
tile(39,12,12).
tile(40,9,6).
