minizinc/input/in_40_20_9_3.dzn
n = 40;
k = 20;
h = 9;
tiles = array2d(1..n, 1..2,
[ 20,11
, 19,10
, 18,6
, 16,20
, 8,18
, 10,9
, 12,8
, 20,18
, 15,20
, 1,2
, 14,13
, 17,17
, 5,14
, 14,10
, 1,7
, 2,7
, 4,12
, 7,9
, 20,16
, 20,15
, 9,18
, 1,7
, 17,1
, 19,7
, 3,7
, 2,10
, 5,13
, 9,8
, 17,7
, 15,9
, 5,3
, 1,6
, 3,2
, 12,4
, 19,12
, 18,10
, 7,14
, 19,3
, 12,12
, 9,6
]);